NAME: test24
TYPE: TSP
DIMENSION: 10
EDGE_WEIGHT_TYPE: EUC_2D
NODE_COORD_SECTION
1 26.797344786582922 21.07423350973079
2 50.94419215359797 57.841497434095125
3 70.16286553172931 72.071759772629
4 90.71839574494037 13.356331667637633
5 45.379312032823094 81.3008801060507
6 53.32085826915929 73.71156773568437
7 80.88151916771204 74.43982559452678
8 38.92251699963823 84.35399356703853
9 74.29817830882898 74.97590695242965
10 98.491045398805 74.1113980367214
EOF
